307604086
437821549
409629075
210825350
217109219
110301233
207167303
101835618
220273306
287949878
205333906
353895658
252524624
384023051
305255703
131749114
245945970
322210530
104730985
359581284
496480160
61947899
353883876
130851292
102937870
358162692
124659753
453397210
305524979
266325308
86497317
448795865
475177394
212449327
313913303
284010586
369267798
73678107
267440897
155279544
111555718
404739926
204616337
294305305
71320862
306399211
346292747
155554647
489580905
137119836
339852635
238548438
408724510
316146058
376250123
337465285
342289113
145471922
294298455
294993267
276270864
406213155
436883114
130412417
172623907
200636753
458358449
448054241
357246546
258798392
61602012
99632960
176750506
167317998
208788811
412243760
444754942
266176565
382776858
154305050
434270401
288126270
116447916
376918559
493207821
367041723
78926933
211722473
378151577
282462368
239110284
196248862
90769998
482372874
109799167
270321325
143623384
238641004
368548698
248854651
256192093
215439625
70761858
431010222
102469365
123333424
349890143
367627147
179299969
69280577
455507544
426160121
282507374
324040916
207439027
184560276
404314389
275020287
324395617
151470119
